\ Model Knapsack Problem
\ LP format - for model browsing. Use MPS format to capture full model detail.
Maximize
  2 x[0] + 8 x[1] + 10 x[2] + 5 x[3] + 18 x[4] + 12 x[5] + 15 x[6] + x[7]
Subject To
 R0: 3 x[0] + 5 x[1] + 4 x[2] + 2 x[3] + 5 x[4] + 4 x[5] + 5 x[6] + x[7]
   <= 15
Bounds
Binaries
 x[0] x[1] x[2] x[3] x[4] x[5] x[6] x[7]
End
